DATASET = "thpack2";
INSTANCE = "006";

WIDTH = 233;
HEIGHT = 220;
LENGTH = 587;

NO_OF_SHAPES = 5;
size = [|
  86,84,45 |
  81,45,34 |
  70,54,37 |
  71,61,52 |
  78,73,40 |
|];

verticality = [|
  1,1,1 |
  0,1,1 |
  1,1,1 |
  1,1,1 |
  1,1,1 |
|];

box_count = [
  37,
  30,
  31,
  18,
  26,
];
